c SAT Generator for power-law distributed variable frequencies
c -g u -v 20 -c 91 -k 3 -p 2.750000 -b 3.200000 -f /home/schmidt/Devel/ni-kop-sat/data/ensemble/ruf20-91/ruf20-91-538 -u 1 -U 1 -s 3595731713
p cnf 20 91
7 -10 12 0
3 4 10 0
-2 -3 14 0
7 -17 -20 0
-7 -11 15 0
8 9 -10 0
-2 -17 -19 0
-4 -6 20 0
1 -12 13 0
5 -16 19 0
13 -17 -19 0
4 19 20 0
-3 15 -19 0
-4 7 -17 0
7 -11 -12 0
1 15 19 0
-11 -15 -20 0
-11 -17 -20 0
-5 -8 -12 0
7 -11 -14 0
-4 15 -17 0
-2 -7 -10 0
-2 19 20 0
9 -14 -18 0
7 15 -17 0
-5 11 -13 0
5 15 20 0
4 -16 -18 0
8 -13 15 0
4 11 19 0
6 14 19 0
4 -12 13 0
-3 -7 18 0
-1 -2 11 0
7 -9 16 0
-11 14 20 0
-8 12 14 0
7 -12 -19 0
2 -12 -15 0
2 5 12 0
-3 -10 -15 0
-1 -5 13 0
3 -11 -20 0
-1 10 13 0
6 10 14 0
7 15 20 0
-5 -7 -18 0
2 5 10 0
-4 11 -14 0
4 7 -13 0
-10 -12 15 0
6 -18 19 0
-10 -14 -20 0
-1 -8 11 0
10 -11 -12 0
2 -4 18 0
11 -17 19 0
10 18 19 0
-1 -8 20 0
3 11 16 0
10 12 -13 0
-7 -10 -15 0
-9 13 -20 0
-4 14 16 0
11 13 18 0
12 15 16 0
2 13 16 0
4 -9 16 0
5 6 9 0
8 -17 -19 0
-9 -14 -19 0
14 15 -18 0
-7 11 19 0
-2 -16 20 0
1 -5 -7 0
-7 8 -11 0
-11 -16 -19 0
6 -10 -15 0
-7 -11 16 0
12 17 18 0
-2 -5 -16 0
6 9 -13 0
-10 -11 18 0
16 -17 18 0
9 13 20 0
4 -8 12 0
9 14 16 0
-11 15 18 0
3 -13 -19 0
14 -17 -19 0
-2 6 -13 0
